50
12510

275 439
317 277
85 941
252 655
19 85
735 353
46 134
262 416
118 521
696 199
209 294
440 409
711 247
573 50
562 237
187 932
191 711
209 736
200 250
386 106
680 202
501 609
222 378
291 704
898 396
934 304
579 378
344 4
995 68
140 515
949 406
454 28
534 274
536 403
464 853
653 818
930 654
563 715
462 670
367 999
964 983
380 288
485 520
95 921
345 775
664 847
494 307
870 424
105 46
565 664
